p cnf 26 66
a 18 10 0
e 1 2 3 4 5 6 7 8 9 11 12 13 14 15 16 17 19 20 21 22 23 24 25 26 0
2 -3 0
-2 -3 0
3 1 -4 0
-3 -1 -4 0
3 -1 4 0
-3 1 4 0
-5 1 0
-5 4 0
-1 -4 5 0
-8 6 0
-8 7 0
-6 -7 8 0
-1 10 -11 0
1 -10 -11 0
-1 -10 11 0
1 10 11 0
12 9 0
12 11 0
-9 -11 -12 0
-11 4 -13 0
11 -4 -13 0
-11 -4 13 0
11 4 13 0
14 12 0
14 -13 0
-12 13 -14 0
15 -7 0
15 -6 0
7 6 -15 0
-17 16 0
-17 9 0
-16 -9 17 0
-15 17 -18 0
15 -17 -18 0
-15 -17 18 0
15 17 18 0
-19 14 0
-19 18 0
-14 -18 19 0
-21 -20 0
-21 10 0
20 -10 21 0
19 -21 -22 0
-19 21 -22 0
19 21 22 0
-19 -21 22 0
-23 8 0
-23 -22 0
-8 22 23 0
-24 5 0
-24 -23 0
-5 23 24 0
10 -1 -25 0
-10 1 -25 0
10 1 25 0
-10 -1 25 0
-26 -24 0
-26 -25 0
24 25 26 0
-9 -10 22 1 -3 21 -11 -12 0
24 5 -4 -2 -8 12 -9 -15 0
-12 5 21 0
18 -25 7 24 -26 4 0
26 1 -11 6 0
-9 -11 3 -14 4 0
26 0
